DATASET = "thpack3";
INSTANCE = "016";

WIDTH = 233;
HEIGHT = 220;
LENGTH = 587;

NO_OF_SHAPES = 8;
size = [|
  43,40,39 |
  97,76,40 |
  67,63,47 |
  98,57,38 |
  73,71,27 |
  66,56,41 |
  82,75,72 |
  93,71,43 |
|];

verticality = [|
  1,1,1 |
  0,1,1 |
  1,1,1 |
  0,1,1 |
  0,0,1 |
  1,1,1 |
  1,1,1 |
  0,1,1 |
|];

box_count = [
  21,
  12,
  15,
  13,
  16,
  15,
  28,
  8,
];
